NAME : 10_3_3_1_(29).dat
COMMENT : Henke, Speranza, Wäscher, 2015
TYPE : MCVRP
DIMENSION : 11
EDGE_WEIGHT_TYPE : DISTANCE_MATRIX
CAPACITY : 1000
VEHICLES : 3
PRODUCT TYPES : 3
COMPARTMENTS : 3
NODE_COORD_SECTION
1 50 50
2 14.12 58.44
3 87.51 5.03
4 0.02 55.5
5 20.87 29.31
6 60.38 62.29
7 59.05 33.91
8 49.12 16.44
9 65.71 13.18
10 23.34 60.57
11 33.29 80.19
DEMAND_SECTION
1 0 0 0
2 0 0 336
3 212 0 0
4 169 0 0
5 103 0 0
6 103 0 0
7 0 184 0
8 134 0 0
9 121 0 0
10 0 199 0
11 0 121 0
DEPOT_SECTION
1
EOF